% demand
num_movements = 43;
loading_factor = [1450, 950, 2000, 1350, 1000, 1200, 900, 1600, 1900, 1050, 1350, 1400, 1800, 1000, 1950, 1650, 1550, 1000, 1950, 900, 1050, 1850, 1450, 1100, 1300, 1050, 1550, 1300, 1450, 1850, 1750, 1350, 900, 1200, 2000, 900, 1400, 1450, 1450, 2000, 1250, 1500, 1900];
pickup_time = [0, 0, 1, 1, 1, 2, 2, 3, 3, 4, 5, 5, 6, 6, 6, 7, 7, 7, 7, 7, 7, 7, 8, 8, 9, 9, 10, 10, 10, 12, 12, 12, 12, 12, 12, 12, 13, 13, 13, 13, 13, 13, 13];
delivery_time = [7, 4, 3, 3, 3, 5, 3, 5, 7, 7, 6, 7, 7, 8, 7, 12, 12, 9, 8, 8, 13, 10, 10, 12, 10, 12, 12, 12, 12, 13, 13, 13, 13, 13, 13, 13, 14, 14, 14, 14, 14, 14, 14];

% transporter definition
total_capacity = 11000;
num_decks = 4;
capacity = [3000, 3000, 1000, 4000];

% ways out of decks
num_ways_out = 2;
paths_out = array3d(decks, ways_out, decks, [
% ways out of deck d1
2, 4, 0, 0, 3, 4, 0, 0, 

% ways out of deck d2
4, 0, 0, 0, 0, 0, 0, 0,	

% ways out of deck d3
4, 0, 0, 0, 0, 0, 0, 0,	

% ways out of deck d4
0, 0, 0, 0,	0, 0, 0, 0,	

]);

